Problem:    
Rows:       176
Columns:    90 (41 integer, 41 binary)
Non-zeros:  494
Status:     INTEGER OPTIMAL
Objective:  obj = 594.9136993 (MINimum)

   No.   Row name        Activity     Lower bound   Upper bound
------ ------------    ------------- ------------- -------------
     1 c1                          0                           0 
     2 c2                          0                           0 
     3 c3                         -1                           0 
     4 c4                          0                           0 
     5 c5                          0                           0 
     6 c6                          0                           0 
     7 c7                          0                           0 
     8 c8                          0                           0 
     9 c9                       -755                           0 
    10 c10                  -65.4532                           0 
    11 c11                  -11.9147                           0 
    12 c12                  -11.0853                           0 
    13 c13                -0.0386511                           0 
    14 c14                 -0.961349                           0 
    15 c15                 -0.153412                           0 
    16 c16                 -0.846588                           0 
    17 c17                 -0.113529                           0 
    18 c18                 -0.886471                           0 
    19 c19                -0.0398835                           0 
    20 c20                 -0.960116                           0 
    21 c21                  -29.8885                           0 
    22 c22                  -50.1115                           0 
    23 c23                         0                           0 
    24 c24                         0                           0 
    25 c25                         0                           0 
    26 c26                         0                           0 
    27 c27                         0                           0 
    28 c28                         0                           0 
    29 c29                         0                           0 
    30 c30                         0                           0 
    31 c31                         0                           0 
    32 c32                         0                           0 
    33 c33                         0                           0 
    34 c34                         0                           0 
    35 c35                         0                           0 
    36 c36                         0                           0 
    37 c37                         0                           0 
    38 c38                         0                           0 
    39 c39                         0                           0 
    40 c40                         0                           0 
    41 c41                         0                           0 
    42 c42                         0                           0 
    43 c43                  -115.826                           0 
    44 c44                  -516.483                           0 
    45 c45                  -29.8885                           0 
    46 c46                  -10.1115                           0 
    47 c47                         0                           0 
    48 c48                         0                           0 
    49 c49                         0                           0 
    50 c50                         0                           0 
    51 c51                         0                           0 
    52 c52                         0                           0 
    53 c53                         0                           0 
    54 c54                         0                           0 
    55 c55                         0                           0 
    56 c56                         0                           0 
    57 c57                         0                           0 
    58 c58                         0                           0 
    59 c59                         0                           0 
    60 c60                         0                           0 
    61 c61                         0                           0 
    62 c62                         0                           0 
    63 c63                 -0.187687                           0 
    64 c64                 -0.812313                           0 
    65 c65                 -0.812313                           0 
    66 c66                 -0.187687                           0 
    67 c67                 -0.885239                           0 
    68 c68                 -0.114761                           0 
    69 c69                         0                           0 
    70 c70                         0                           0 
    71 c71                         0                           0 
    72 c72                         0                           0 
    73 c73                 -0.807936                           0 
    74 c74                 -0.192064                           0 
    75 c75                 -0.177633                           0 
    76 c76                 -0.822367                           0 
    77 c77                         0                           0 
    78 c78                         0                           0 
    79 c79                         0                           0 
    80 c80                         0                           0 
    81 c81                -0.0494246                           0 
    82 c82                 -0.950575                           0 
    83 c83                -0.0797671                           0 
    84 c84                 -0.920233                           0 
    85 c85                        -1                           0 
    86 c86                         0                           0 
    87 c87                         0                           0 
    88 c88                         0                           0 
    89 c89                         0                           0 
    90 c90                         0                           0 
    91 c91                         0                           0 
    92 c92                         0                           0 
    93 c93                         0                           0 
    94 c94                         0                           0 
    95 c95                        -2                           0 
    96 c96                         0                           0 
    97 c97                 -0.375374                           0 
    98 c98                  -1.62463                           0 
    99 c99                  -1.69318                           0 
   100 c100                -0.306825                           0 
   101 c101               -0.0773023                           0 
   102 c102                  -1.9227                           0 
   103 c103                -0.227058                           0 
   104 c104                 -1.77294                           0 
   105 c105                -0.128208                           0 
   106 c106                 -1.87179                           0 
   107 c107               -0.0797671                           0 
   108 c108                 -1.92023                           0 
   109 c109               -0.0797671                           0 
   110 c110                 -1.92023                           0 
   111 c111                        1             1             = 
   112 c112                        1             1             = 
   113 c113                        1             1             = 
   114 c114                        1             1             = 
   115 c115                        0                           0 
   116 c116                        0                           0 
   117 c117                        0             0               
   118 c118                        0                           0 
   119 c119                        0                           0 
   120 c120                        0             0               
   121 c121                        0             0               
   122 c122                        0                           0 
   123 c123                        0             0               
   124 c124                0.0968828             0               
   125 c125                        0             0               
   126 c126                        0                           0 
   127 c127                        0                           0 
   128 c128                  27.9146             0               
   129 c129                        0                           0 
   130 c130                        0             0               
   131 c131                        0                           0 
   132 c132                        0             0               
   133 c133                        0             0             = 
   134 c134                        0             0               
   135 c135                        0                           1 
   136 c136                        0                           1 
   137 c137                        1                           1 
   138 c138                        1                           1 
   139 c139                        1                           1 
   140 c140                        1                           1 
   141 c141                        1                           1 
   142 c142                        1                           1 
   143 c143                        1                           1 
   144 c144                        1                           1 
   145 c145                        0                           1 
   146 c146                        1                           1 
   147 c147                        0                           1 
   148 c148                        1                           1 
   149 c149                        0                           1 
   150 c150                        1                           1 
   151 c151                        1                           1 
   152 c152                        1                           1 
   153 c153                        1                           1 
   154 c154                        1                           1 
   155 c155                        0             0             = 
   156 c156                        0             0             = 
   157 c157                        0             0             = 
   158 c158                        0             0             = 
   159 c159                        0             0             = 
   160 c160                        0             0               
   161 c161                  344.773             0               
   162 c162                        0                     12.3464 
   163 c163                  20.2305                     21.4328 
   164 c164                        0                     34.0585 
   165 c165                        0                     46.1796 
   166 c166                        0                     50.3199 
   167 c167                        0                      58.225 
   168 c168                        0                     73.1929 
   169 c169                  35.2618                     35.2618 
   170 c170                        0                     34.0585 
   171 c171                        0             0               
   172 c172                0.0168917             0               
   173 c173                        0             0               
   174 c174                  607.091             0               
   175 c175                        0                           0 
   176 c176                 -6722.91                           0 

   No. Column name       Activity     Lower bound   Upper bound
------ ------------    ------------- ------------- -------------
     1 ch1_enwk_1_m_perc
                                   0             0               
     2 ch1_enwk_1_y *              0             0             1 
     3 ch2_enwk_1_m_perc
                                   1             0               
     4 ch2_enwk_1_y *              1             0             1 
     5 ch1_ep_1_m_flow
                                   0             0               
     6 ch1_ep_1_y   *              0             0             1 
     7 ch1_ep_1_delp
                                   0             0               
     8 ch2_ep_1_m_flow
                                 755             0               
     9 ch2_ep_1_y   *              1             0             1 
    10 ch2_ep_1_delp
                             11.9147             0               
    11 sp1_temp_t_inout
                           0.0386511             0               
    12 sp1_temp_y   *              1             0             1 
    13 ice_nwk_1_m_perc
                            0.153412             0               
    14 ice_nwk_1_y  *              1             0             1 
    15 gv2_nwk_1_m_perc
                            0.113529             0               
    16 gv2_nwk_1_y  *              1             0             1 
    17 hsb_nwk_1_m_perc
                           0.0398835             0               
    18 hsb_nwk_1_y  *              1             0             1 
    19 para_nwk_con_delp
                             29.8885             0               
    20 para_nwk_con_y
                    *              1             0             1 
    21 dist_np_combi_0_0_m_flow
                                   0             0               
    22 dist_np_combi_0_0_y
                    *              0             0             1 
    23 dist_np_combi_0_0_delp
                                   0             0               
    24 dist_np_combi_1_0_m_flow
                                   0             0               
    25 dist_np_combi_1_0_y
                    *              0             0             1 
    26 dist_np_combi_1_0_delp
                                   0             0               
    27 dist_np_combi_2_0_m_flow
                                   0             0               
    28 dist_np_combi_2_0_y
                    *              0             0             1 
    29 dist_np_combi_2_0_delp
                                   0             0               
    30 dist_np_combi_3_0_m_flow
                                   0             0               
    31 dist_np_combi_3_0_y
                    *              0             0             1 
    32 dist_np_combi_3_0_delp
                                   0             0               
    33 dist_np_combi_4_0_m_flow
                                   0             0               
    34 dist_np_combi_4_0_y
                    *              0             0             1 
    35 dist_np_combi_4_0_delp
                                   0             0               
    36 dist_np_combi_5_0_m_flow
                             115.826             0               
    37 dist_np_combi_5_0_y
                    *              1             0             1 
    38 dist_np_combi_5_0_delp
                             29.8885             0               
    39 dist_np_combi_6_0_m_flow
                                   0             0               
    40 dist_np_combi_6_0_y
                    *              0             0             1 
    41 dist_np_combi_6_0_delp
                                   0             0               
    42 ch1_1_u0                    0             0               
    43 ch1_1_u0_y   *              0             0             1 
    44 ch1_1_v0                    0             0               
    45 ch1_1_v0_y   *              0             0             1 
    46 ch1_1_u1                    0             0               
    47 ch1_1_u1_y   *              0             0             1 
    48 ch1_1_v1                    0             0               
    49 ch1_1_v1_y   *              0             0             1 
    50 ch2_1_u0                    0             0               
    51 ch2_1_u0_y   *              0             0             1 
    52 ch2_1_v0                    0             0               
    53 ch2_1_v0_y   *              0             0             1 
    54 ch2_1_u1              1.18769             0               
    55 ch2_1_u1_y   *              1             0             1 
    56 ch2_1_v1             0.812313             0               
    57 ch2_1_v1_y   *              1             0             1 
    58 cp_nwk_u0            0.885239             0               
    59 cp_nwk_u0_y  *              1             0             1 
    60 cp_nwk_v0                   0             0               
    61 cp_nwk_v0_y  *              0             0             1 
    62 cp_nwk_u1                   0             0               
    63 cp_nwk_u1_y  *              0             0             1 
    64 cp_nwk_v1            0.807936             0               
    65 cp_nwk_v1_y  *              1             0             1 
    66 gv2_ss_u0            0.177633             0               
    67 gv2_ss_u0_y  *              1             0             1 
    68 gv2_ss_v0                   0             0               
    69 gv2_ss_v0_y  *              0             0             1 
    70 gv2_ss_u1                   0             0               
    71 gv2_ss_u1_y  *              0             0             1 
    72 gv2_ss_v1           0.0494246             0               
    73 gv2_ss_v1_y  *              1             0             1 
    74 hsb_ss_u0           0.0797671             0               
    75 hsb_ss_u0_y  *              1             0             1 
    76 hsb_ss_v0                   0             0               
    77 hsb_ss_v0_y  *              1             0             1 
    78 hsb_ss_u1                   0             0               
    79 hsb_ss_u1_y  *              0             0             1 
    80 hsb_ss_v1                   0             0               
    81 hsb_ss_v1_y  *              0             0             1 
    82 ch_e_f_c_m_perc
                                   1             0               
    83 ch_e_f_c_y                  1             0               
    84 ch_evap_ret_t_in
                                   1             0               
    85 ch_evap_ret_y
                                   1             0               
    86 ch1_1_y      *              0             0             1 
    87 ch2_1_y      *              1             0             1 
    88 cp_nwk_y     *              1             0             1 
    89 gv2_ss_y     *              1             0             1 
    90 hsb_ss_y     *              1             0             1 

Integer feasibility conditions:

KKT.PE: max.abs.err = 1.14e-13 on row 44
        max.rel.err = 8.98e-17 on row 44
        High quality

KKT.PB: max.abs.err = 1.67e-13 on row 132
        max.rel.err = 1.67e-13 on row 132
        High quality

End of output
